PARAMETER_FILE = even/LKH_uncomplete_graph/x10/de/par/random137.par
PROBLEM_FILE = even/LKH_uncomplete_graph/x10/de/mat/random137.tsp
Successes/Runs = 0/10
Cost.min = 912, Cost.avg = 912.00, Cost.max = 912
Gap.min = 0.0000%, Gap.avg = 0.0000%, Gap.max = 0.0000%
Trials.min = 1000, Trials.avg = 1000.0, Trials.max = 1000
Time.min = 1.25 sec., Time.avg = 1.59 sec., Time.max = 1.86 sec.
Time.total = 15.96 sec.
请按任意键继续. . . 
